59
65
74
94
35
209
109
101
52
100
63
76
24
41
100
89
32
89
0
109
32
157
94
26
222
0
0
142
60
94
0
70
111
45
25
53
0
29
188
124
544
52
64
0
48
34
244
151
0
33
38
37
128
0
0
40
134
47
81
57
110
216
41
134
97
37
44
31
259
32
83
48
119
57
43
0
82
53
79
24
56
86
80
56
0
27
0
77
111
114
24
48
31
51
277
382
90
116
163
67
